 &BANDS
    prefix = 'BiTeI'
    outdir='./band/'
    filband='BiTeI.band'
 /
