 &control
                       title = BiTeI ,
                 calculation = 'bands' 
                  pseudo_dir = './' ,
                      prefix = 'BiTeI' ,
                      outdir = './band/'
                  wf_collect = .true.  
 /
 &system
                       ibrav = 4,
                    noncolin = .true. 
                    lspinorb = .true.,
                   celldm(1) = 8.202646,
                   celldm(3) = 1.579490,
                         nat = 3,
                        ntyp = 3,
                     ecutwfc = 40 ,
                        nbnd = 40,
                 occupations ='smearing',
                    smearing ='methfessel-paxton',
                     degauss =0.02
 /
 &electrons
             diagonalization = 'david',
                    conv_thr = 1.0d-8 ,
 /
ATOMIC_SPECIES
   Bi  208.98038  Bi.UPF 
   Te  127.60000  Te.UPF 
    I  126.90447  I.UPF 
ATOMIC_POSITIONS crystal 
   Bi      0.000000000    0.000000000    0.000000000    
   Te      0.666666667    0.333333333    0.747700000    
    I      0.333333333    0.666666667    0.307500000    
K_POINTS crystal 
81
   0.000000000000000   0.000000000000000   0.000000000000000   1.00000
   0.025000000000000  -0.025000000000000   0.000000000000000   1.00000
   0.050000000000000  -0.050000000000000   0.000000000000000   1.00000
   0.075000000000000  -0.075000000000000   0.000000000000000   1.00000
   0.100000000000000  -0.100000000000000   0.000000000000000   1.00000
   0.125000000000000  -0.125000000000000   0.000000000000000   1.00000
   0.150000000000000  -0.150000000000000   0.000000000000000   1.00000
   0.175000000000000  -0.175000000000000   0.000000000000000   1.00000
   0.200000000000000  -0.200000000000000   0.000000000000000   1.00000
   0.225000000000000  -0.225000000000000   0.000000000000000   1.00000
   0.250000000000000  -0.250000000000000   0.000000000000000   1.00000
   0.275000000000000  -0.275000000000000   0.000000000000000   1.00000
   0.300000000000000  -0.300000000000000   0.000000000000000   1.00000
   0.325000000000000  -0.325000000000000   0.000000000000000   1.00000
   0.350000000000000  -0.350000000000000   0.000000000000000   1.00000
   0.375000000000000  -0.375000000000000   0.000000000000000   1.00000
   0.400000000000000  -0.400000000000000   0.000000000000000   1.00000
   0.425000000000000  -0.425000000000000   0.000000000000000   1.00000
   0.450000000000000  -0.450000000000000   0.000000000000000   1.00000
   0.475000000000000  -0.475000000000000   0.000000000000000   1.00000
   0.500000000000000  -0.500000000000000   0.000000000000000   1.00000
   0.508333333333333  -0.491666666666667   0.000000000000000   1.00000
   0.516666666666667  -0.483333333333333   0.000000000000000   1.00000
   0.525000000000000  -0.475000000000000   0.000000000000000   1.00000
   0.533333333333333  -0.466666666666667   0.000000000000000   1.00000
   0.541666666666667  -0.458333333333333   0.000000000000000   1.00000
   0.550000000000000  -0.450000000000000   0.000000000000000   1.00000
   0.558333333333333  -0.441666666666667   0.000000000000000   1.00000
   0.566666666666667  -0.433333333333333   0.000000000000000   1.00000
   0.575000000000000  -0.425000000000000   0.000000000000000   1.00000
   0.583333333333333  -0.416666666666667   0.000000000000000   1.00000
   0.591666666666667  -0.408333333333333   0.000000000000000   1.00000
   0.600000000000000  -0.400000000000000   0.000000000000000   1.00000
   0.608333333333333  -0.391666666666667   0.000000000000000   1.00000
   0.616666666666667  -0.383333333333333   0.000000000000000   1.00000
   0.625000000000000  -0.375000000000000   0.000000000000000   1.00000
   0.633333333333333  -0.366666666666667   0.000000000000000   1.00000
   0.641666666666667  -0.358333333333333   0.000000000000000   1.00000
   0.650000000000000  -0.350000000000000   0.000000000000000   1.00000
   0.658333333333333  -0.341666666666667   0.000000000000000   1.00000
   0.666666666666667  -0.333333333333333   0.000000000000000   1.00000
   0.633333333333333  -0.316666666666667   0.000000000000000   1.00000
   0.600000000000000  -0.300000000000000   0.000000000000000   1.00000
   0.566666666666667  -0.283333333333333   0.000000000000000   1.00000
   0.533333333333333  -0.266666666666667   0.000000000000000   1.00000
   0.500000000000000  -0.250000000000000   0.000000000000000   1.00000
   0.466666666666667  -0.233333333333333   0.000000000000000   1.00000
   0.433333333333333  -0.216666666666667   0.000000000000000   1.00000
   0.400000000000000  -0.200000000000000   0.000000000000000   1.00000
   0.366666666666667  -0.183333333333333   0.000000000000000   1.00000
   0.333333333333333  -0.166666666666667   0.000000000000000   1.00000
   0.300000000000000  -0.150000000000000   0.000000000000000   1.00000
   0.266666666666667  -0.133333333333333   0.000000000000000   1.00000
   0.233333333333333  -0.116666666666667   0.000000000000000   1.00000
   0.200000000000000  -0.100000000000000   0.000000000000000   1.00000
   0.166666666666667  -0.083333333333333   0.000000000000000   1.00000
   0.133333333333333  -0.066666666666667   0.000000000000000   1.00000
   0.100000000000000  -0.050000000000000   0.000000000000000   1.00000
   0.066666666666667  -0.033333333333333   0.000000000000000   1.00000
   0.033333333333333  -0.016666666666667   0.000000000000000   1.00000
   0.000000000000000   0.000000000000000   0.000000000000000   1.00000
   0.000000000000000   0.000000000000000   0.025000000000000   1.00000
   0.000000000000000   0.000000000000000   0.050000000000000   1.00000
   0.000000000000000   0.000000000000000   0.075000000000000   1.00000
   0.000000000000000   0.000000000000000   0.100000000000000   1.00000
   0.000000000000000   0.000000000000000   0.125000000000000   1.00000
   0.000000000000000   0.000000000000000   0.150000000000000   1.00000
   0.000000000000000   0.000000000000000   0.175000000000000   1.00000
   0.000000000000000   0.000000000000000   0.200000000000000   1.00000
   0.000000000000000   0.000000000000000   0.225000000000000   1.00000
   0.000000000000000   0.000000000000000   0.250000000000000   1.00000
   0.000000000000000   0.000000000000000   0.275000000000000   1.00000
   0.000000000000000   0.000000000000000   0.300000000000000   1.00000
   0.000000000000000   0.000000000000000   0.325000000000000   1.00000
   0.000000000000000   0.000000000000000   0.350000000000000   1.00000
   0.000000000000000   0.000000000000000   0.375000000000000   1.00000
   0.000000000000000   0.000000000000000   0.400000000000000   1.00000
   0.000000000000000   0.000000000000000   0.425000000000000   1.00000
   0.000000000000000   0.000000000000000   0.450000000000000   1.00000
   0.000000000000000   0.000000000000000   0.475000000000000   1.00000
   0.000000000000000   0.000000000000000   0.500000000000000   1.00000
