 &control
    calculation='bands'
    restart_mode='from_scratch'
    wf_collect = .true.
    prefix = 'Al'
    pseudo_dir = './PP/' 
    outdir = './tmp/band/' 
 /
 &system
    ibrav = 0
    celldm(1) = 7.60 
    nat = 1
    ntyp = 1
    ecutwfc = 36.0
    occupations = 'smearing'
    smearing = 'gaussian'
    degauss = 0.02
    nbnd = 50
 /
 &electrons
    diagonalization = cg
 /
ATOMIC_SPECIES
 Al  26.982  Al_ONCV_PBE-1.0.upf
CELL_PARAMETERS {alat}
   0.5  0.5  0.0 
   0.0  0.5  0.5 
   0.5  0.0  0.5
ATOMIC_POSITIONS {crystal} 
 Al  0.00 0.00 0.00
K_POINTS {crystal_b}
  5
  0.500 0.500 0.500 20 
  0.000 0.000 0.000 20 
  0.500 0.000 0.500 20 
  0.500 0.250 0.750 20 
  0.500 0.500 0.500 20 
