 &BANDS
    outdir='./tmp/band/'
    prefix='Al'
    filband='Al.band'
 /
