 &BANDS
    outdir='./tmp/band/'
    prefix='Si'
    filband='Si.band'
 /
