 &control
    calculation='bands'
    restart_mode='from_scratch'
    wf_collect = .true.
    prefix = 'Si'
    pseudo_dir = './PP/' 
    outdir = './tmp/band/' 
 /
 &system
    ibrav = 0
    celldm(1) = 10.318 
    nat = 2
    ntyp = 1
    ecutwfc = 36.0
    nr1 = 32 
    nr2 = 32 
    nr3 = 32 
    nbnd = 50
 /
 &electrons
    diagonalization = cg
 /
ATOMIC_SPECIES
 Si  28.085  Si_ONCV_PBE-1.1.upf
CELL_PARAMETERS {alat}
   0.5  0.5  0.0 
   0.0  0.5  0.5 
   0.5  0.0  0.5
ATOMIC_POSITIONS {crystal} 
 Si  0.000  0.000  0.000  
 Si  0.250  0.250  0.250  
K_POINTS {crystal_b}
  5
  0.500 0.500 0.500 20 
  0.000 0.000 0.000 20 
  0.500 0.000 0.500 20 
  0.500 0.250 0.750 20 
  0.500 0.500 0.500 20 
