 &control
    calculation='scf'
    restart_mode='from_scratch'
    tstress = .true.
    tprnfor = .true.
    wf_collect = .true.
    prefix = 'Si'
    pseudo_dir = './PP/' 
    outdir = './tmp/scf/' 
 /
 &system
    ibrav = 0
    celldm(1) = 10.318 
    nat = 2
    ntyp = 1
    ecutwfc = 36.0
    nr1 = 32 
    nr2 = 32 
    nr3 = 32 
    nbnd = 50
 /
 &electrons
    diagonalization = cg
    conv_thr =  1.0d-8
    mixing_beta = 0.3
 /
ATOMIC_SPECIES
 Si  28.085  Si_ONCV_PBE-1.1.upf
CELL_PARAMETERS {alat}
   0.5  0.5  0.0 
   0.0  0.5  0.5 
   0.5  0.0  0.5
ATOMIC_POSITIONS {crystal} 
 Si  0.000  0.000  0.000  
 Si  0.250  0.250  0.250  
K_POINTS {automatic}
 6 6 6  0 0 0 
