 &BANDS
    outdir='./tmp/band/'
    prefix='SrVO3'
    filband='SrVO3.band'
 /
