 &BANDS
    prefix = 'GaAs'
    outdir='./band/'
    filband='GaAs.band'
 /
