 Fe S 
   0.1000000398E+01
   0.4436000000E+01   0.0000000000E+00   0.0000000000E+00
   0.0000000000E+00   0.5414000000E+01   0.0000000000E+00
   0.0000000000E+00   0.0000000000E+00   0.3381000000E+01
      2      4
Direct
   0.000000000000  0.000000000000  0.000000000000
   0.500000000000  0.500000000000  0.500000000000
   0.200000000000  0.378000000000  0.000000000000
   0.800000000000  0.622000000000  0.000000000000
   0.300000000000  0.878000000000  0.500000000000
   0.700000000000  0.122000000000  0.500000000000
